N = 6;
Capacity = 4;
nbVehicles = 9;
maxVisitsPerCustomer = 2;
ItemsPerCustomer = [5, 8, 2, 8, 5, 7];
maxItemsPerCustomer = 8;
binCapacity = 50;
SizesOfItems = [|
  50, 50, 50, 50, 50, 0, 0, 0
| 36, 33, 27, 16, 16, 12, 12, 11
| 40, 32, 0, 0, 0, 0, 0, 0
| 35, 32, 27, 26, 19, 17, 16, 12
| 36, 34, 30, 23, 16, 0, 0, 0
| 39, 31, 27, 27, 26, 21, 12, 0
|];
Distance = [|
  0, 41, 37, 43, 41, 35, 30
| 41, 0, 37, 78, 74, 37, 12
| 37, 37, 0, 80, 78, 2, 28
| 43, 78, 80, 0, 7, 78, 70
| 41, 74, 78, 7, 0, 76, 66
| 35, 37, 2, 78, 76, 0, 28
| 30, 12, 28, 70, 66, 28, 0
|];
